(declare-fun cmp245.i.i_45_101 () (_ BitVec 1))
(declare-fun narrow_45_103 () (_ BitVec 1))
(declare-fun cmp241.not.i.i_45_100 () (_ BitVec 1))
(declare-fun i144.i.i_45_98 () (_ BitVec 32))
(declare-fun i138.i.i_45_97 () (_ BitVec 32))
(declare-fun i146.i.i_45_99 () (_ BitVec 32))
(declare-fun i136.i.i_45_96 () (_ BitVec 32))
(declare-fun src_reg_45_27 () (_ BitVec 32))
(declare-fun src_reg_45_26 () (_ BitVec 32))
(declare-fun dst_reg_45_9 () (_ BitVec 32))
(declare-fun dst_reg_45_8 () (_ BitVec 32))
(declare-fun i30.i32_45_95 () (_ BitVec 32))
(declare-fun src_reg_45_29 () (_ BitVec 32))
(declare-fun i29.i29_45_94 () (_ BitVec 32))
(declare-fun src_reg_45_28 () (_ BitVec 32))
(declare-fun i28.i26_45_93 () (_ BitVec 32))
(declare-fun i27.i23_45_92 () (_ BitVec 32))
(declare-fun i26.i20_45_91 () (_ BitVec 64))
(declare-fun src_reg_45_25 () (_ BitVec 64))
(declare-fun i25.i17_45_90 () (_ BitVec 64))
(declare-fun src_reg_45_24 () (_ BitVec 64))
(declare-fun i24.i14_45_89 () (_ BitVec 64))
(declare-fun src_reg_45_23 () (_ BitVec 64))
(declare-fun i23.i11_45_88 () (_ BitVec 64))
(declare-fun src_reg_45_22 () (_ BitVec 64))
(declare-fun i22.i8_45_87 () (_ BitVec 64))
(declare-fun src_reg_45_21 () (_ BitVec 64))
(declare-fun i21.i5_45_86 () (_ BitVec 64))
(declare-fun src_reg_45_20 () (_ BitVec 64))
(declare-fun i.i2_45_85 () (_ BitVec 32))
(declare-fun i30.i_45_84 () (_ BitVec 32))
(declare-fun dst_reg_45_11 () (_ BitVec 32))
(declare-fun i29.i_45_83 () (_ BitVec 32))
(declare-fun dst_reg_45_10 () (_ BitVec 32))
(declare-fun i28.i_45_82 () (_ BitVec 32))
(declare-fun i27.i_45_81 () (_ BitVec 32))
(declare-fun i26.i_45_80 () (_ BitVec 64))
(declare-fun dst_reg_45_7 () (_ BitVec 64))
(declare-fun i25.i_45_79 () (_ BitVec 64))
(declare-fun dst_reg_45_6 () (_ BitVec 64))
(declare-fun i24.i_45_78 () (_ BitVec 64))
(declare-fun dst_reg_45_5 () (_ BitVec 64))
(declare-fun i23.i_45_77 () (_ BitVec 64))
(declare-fun dst_reg_45_4 () (_ BitVec 64))
(declare-fun i22.i_45_76 () (_ BitVec 64))
(declare-fun dst_reg_45_3 () (_ BitVec 64))
(declare-fun i21.i_45_75 () (_ BitVec 64))
(declare-fun dst_reg_45_2 () (_ BitVec 64))
(declare-fun i.i_45_74 () (_ BitVec 32))
(declare-fun other_branch_src_reg_45_71 () (_ BitVec 8))
(declare-fun other_branch_src_reg_45_70 () (_ BitVec 32))
(declare-fun other_branch_src_reg_45_69 () (_ BitVec 32))
(declare-fun other_branch_src_reg_45_68 () (_ BitVec 32))
(declare-fun other_branch_src_reg_45_67 () (_ BitVec 32))
(declare-fun other_branch_src_reg_45_66 () (_ BitVec 32))
(declare-fun other_branch_src_reg_45_65 () (_ BitVec 32))
(declare-fun other_branch_src_reg_45_64 () (_ BitVec 32))
(declare-fun other_branch_src_reg_45_63 () (_ BitVec 32))
(declare-fun other_branch_src_reg_45_62 () (_ BitVec 32))
(declare-fun other_branch_src_reg_45_61 () (_ BitVec 64))
(declare-fun other_branch_src_reg_45_60 () (_ BitVec 64))
(declare-fun other_branch_src_reg_45_59 () (_ BitVec 64))
(declare-fun other_branch_src_reg_45_58 () (_ BitVec 64))
(declare-fun other_branch_src_reg_45_57 () (_ BitVec 64))
(declare-fun other_branch_src_reg_45_56 () (_ BitVec 64))
(declare-fun other_branch_src_reg_45_55 () (_ BitVec 32))
(declare-fun other_branch_src_reg_45_54 () (_ BitVec 32))
(declare-fun other_branch_dst_reg_45_53 () (_ BitVec 8))
(declare-fun other_branch_dst_reg_45_52 () (_ BitVec 32))
(declare-fun other_branch_dst_reg_45_51 () (_ BitVec 32))
(declare-fun other_branch_dst_reg_45_50 () (_ BitVec 32))
(declare-fun other_branch_dst_reg_45_49 () (_ BitVec 32))
(declare-fun other_branch_dst_reg_45_48 () (_ BitVec 32))
(declare-fun other_branch_dst_reg_45_47 () (_ BitVec 32))
(declare-fun other_branch_dst_reg_45_46 () (_ BitVec 32))
(declare-fun other_branch_dst_reg_45_45 () (_ BitVec 32))
(declare-fun other_branch_dst_reg_45_44 () (_ BitVec 32))
(declare-fun other_branch_dst_reg_45_43 () (_ BitVec 64))
(declare-fun other_branch_dst_reg_45_42 () (_ BitVec 64))
(declare-fun other_branch_dst_reg_45_41 () (_ BitVec 64))
(declare-fun other_branch_dst_reg_45_40 () (_ BitVec 64))
(declare-fun other_branch_dst_reg_45_39 () (_ BitVec 64))
(declare-fun other_branch_dst_reg_45_38 () (_ BitVec 64))
(declare-fun other_branch_dst_reg_45_37 () (_ BitVec 32))
(declare-fun other_branch_dst_reg_45_36 () (_ BitVec 32))
(declare-fun src_reg_45_35 () (_ BitVec 8))
(declare-fun src_reg_45_34 () (_ BitVec 32))
(declare-fun src_reg_45_33 () (_ BitVec 32))
(declare-fun src_reg_45_32 () (_ BitVec 32))
(declare-fun src_reg_45_31 () (_ BitVec 32))
(declare-fun src_reg_45_30 () (_ BitVec 32))
(declare-fun src_reg_45_19 () (_ BitVec 32))
(declare-fun src_reg_45_18 () (_ BitVec 32))
(declare-fun dst_reg_45_17 () (_ BitVec 8))
(declare-fun dst_reg_45_16 () (_ BitVec 32))
(declare-fun dst_reg_45_15 () (_ BitVec 32))
(declare-fun dst_reg_45_14 () (_ BitVec 32))
(declare-fun dst_reg_45_13 () (_ BitVec 32))
(declare-fun dst_reg_45_12 () (_ BitVec 32))
(declare-fun dst_reg_45_1 () (_ BitVec 32))
(declare-fun dst_reg_45_0 () (_ BitVec 32))
(declare-fun cmp.not.i_45_106 () (_ BitVec 1))
(declare-fun i.i35_45_104 () (_ BitVec 32))
(declare-fun cmp2.not.i_45_109 () (_ BitVec 1))
(declare-fun i1.i_45_107 () (_ BitVec 32))
(declare-fun i365.i538.i_45_124 () (_ BitVec 32))
(declare-fun cond371.i540.i_45_126 () (_ BitVec 32))
(declare-fun i364.i536.i_45_123 () (_ BitVec 32))
(declare-fun cmp366.i539.i_45_125 () (_ BitVec 1))
(declare-fun i363.i532.i_45_120 () (_ BitVec 32))
(declare-fun cond361.i534.i_45_122 () (_ BitVec 32))
(declare-fun i362.i530.i_45_119 () (_ BitVec 32))
(declare-fun cmp356.i533.i_45_121 () (_ BitVec 1))
(declare-fun i373.i.i_45_116 () (_ BitVec 32))
(declare-fun cond418.i.i_45_118 () (_ BitVec 32))
(declare-fun add410.i.i_45_115 () (_ BitVec 32))
(declare-fun cmp413.i.i_45_117 () (_ BitVec 1))
(declare-fun sub400.i.i_45_111 () (_ BitVec 32))
(declare-fun cond407.i.i_45_113 () (_ BitVec 32))
(declare-fun cmp402.i.i_45_112 () (_ BitVec 1))
(declare-fun other_branch_src_reg_45_270 () (_ BitVec 8))
(declare-fun other_branch_src_reg_45_198 () (_ BitVec 8))
(declare-fun other_branch_src_reg_45_269 () (_ BitVec 32))
(declare-fun other_branch_src_reg_45_197 () (_ BitVec 32))
(declare-fun other_branch_src_reg_45_268 () (_ BitVec 32))
(declare-fun other_branch_src_reg_45_196 () (_ BitVec 32))
(declare-fun other_branch_src_reg_45_267 () (_ BitVec 32))
(declare-fun other_branch_src_reg_45_195 () (_ BitVec 32))
(declare-fun other_branch_src_reg_45_266 () (_ BitVec 32))
(declare-fun other_branch_src_reg_45_194 () (_ BitVec 32))
(declare-fun other_branch_src_reg_45_265 () (_ BitVec 32))
(declare-fun other_branch_src_reg_45_193 () (_ BitVec 32))
(declare-fun other_branch_src_reg_45_264 () (_ BitVec 32))
(declare-fun other_branch_src_reg_45_192 () (_ BitVec 32))
(declare-fun other_branch_src_reg_45_263 () (_ BitVec 32))
(declare-fun other_branch_src_reg_45_191 () (_ BitVec 32))
(declare-fun other_branch_src_reg_45_262 () (_ BitVec 32))
(declare-fun other_branch_src_reg_45_190 () (_ BitVec 32))
(declare-fun other_branch_src_reg_45_261 () (_ BitVec 32))
(declare-fun other_branch_src_reg_45_189 () (_ BitVec 32))
(declare-fun other_branch_src_reg_45_260 () (_ BitVec 64))
(declare-fun other_branch_src_reg_45_188 () (_ BitVec 64))
(declare-fun other_branch_src_reg_45_259 () (_ BitVec 64))
(declare-fun other_branch_src_reg_45_187 () (_ BitVec 64))
(declare-fun other_branch_src_reg_45_258 () (_ BitVec 64))
(declare-fun other_branch_src_reg_45_186 () (_ BitVec 64))
(declare-fun other_branch_src_reg_45_257 () (_ BitVec 64))
(declare-fun other_branch_src_reg_45_185 () (_ BitVec 64))
(declare-fun other_branch_src_reg_45_256 () (_ BitVec 64))
(declare-fun other_branch_src_reg_45_184 () (_ BitVec 64))
(declare-fun other_branch_src_reg_45_255 () (_ BitVec 64))
(declare-fun other_branch_src_reg_45_183 () (_ BitVec 64))
(declare-fun other_branch_src_reg_45_254 () (_ BitVec 32))
(declare-fun other_branch_src_reg_45_182 () (_ BitVec 32))
(declare-fun other_branch_src_reg_45_253 () (_ BitVec 32))
(declare-fun other_branch_src_reg_45_181 () (_ BitVec 32))
(declare-fun other_branch_dst_reg_45_252 () (_ BitVec 8))
(declare-fun other_branch_dst_reg_45_180 () (_ BitVec 8))
(declare-fun other_branch_dst_reg_45_251 () (_ BitVec 32))
(declare-fun other_branch_dst_reg_45_179 () (_ BitVec 32))
(declare-fun other_branch_dst_reg_45_250 () (_ BitVec 32))
(declare-fun other_branch_dst_reg_45_178 () (_ BitVec 32))
(declare-fun other_branch_dst_reg_45_249 () (_ BitVec 32))
(declare-fun other_branch_dst_reg_45_177 () (_ BitVec 32))
(declare-fun other_branch_dst_reg_45_248 () (_ BitVec 32))
(declare-fun other_branch_dst_reg_45_176 () (_ BitVec 32))
(declare-fun other_branch_dst_reg_45_247 () (_ BitVec 32))
(declare-fun other_branch_dst_reg_45_175 () (_ BitVec 32))
(declare-fun other_branch_dst_reg_45_246 () (_ BitVec 32))
(declare-fun other_branch_dst_reg_45_174 () (_ BitVec 32))
(declare-fun other_branch_dst_reg_45_245 () (_ BitVec 32))
(declare-fun other_branch_dst_reg_45_173 () (_ BitVec 32))
(declare-fun other_branch_dst_reg_45_244 () (_ BitVec 32))
(declare-fun other_branch_dst_reg_45_172 () (_ BitVec 32))
(declare-fun other_branch_dst_reg_45_243 () (_ BitVec 32))
(declare-fun other_branch_dst_reg_45_171 () (_ BitVec 32))
(declare-fun other_branch_dst_reg_45_242 () (_ BitVec 64))
(declare-fun other_branch_dst_reg_45_170 () (_ BitVec 64))
(declare-fun other_branch_dst_reg_45_241 () (_ BitVec 64))
(declare-fun other_branch_dst_reg_45_169 () (_ BitVec 64))
(declare-fun other_branch_dst_reg_45_240 () (_ BitVec 64))
(declare-fun other_branch_dst_reg_45_168 () (_ BitVec 64))
(declare-fun other_branch_dst_reg_45_239 () (_ BitVec 64))
(declare-fun other_branch_dst_reg_45_167 () (_ BitVec 64))
(declare-fun other_branch_dst_reg_45_238 () (_ BitVec 64))
(declare-fun other_branch_dst_reg_45_166 () (_ BitVec 64))
(declare-fun other_branch_dst_reg_45_237 () (_ BitVec 64))
(declare-fun other_branch_dst_reg_45_165 () (_ BitVec 64))
(declare-fun other_branch_dst_reg_45_236 () (_ BitVec 32))
(declare-fun other_branch_dst_reg_45_164 () (_ BitVec 32))
(declare-fun other_branch_dst_reg_45_235 () (_ BitVec 32))
(declare-fun other_branch_dst_reg_45_163 () (_ BitVec 32))
(declare-fun src_reg_45_234 () (_ BitVec 8))
(declare-fun src_reg_45_162 () (_ BitVec 8))
(declare-fun src_reg_45_233 () (_ BitVec 32))
(declare-fun src_reg_45_161 () (_ BitVec 32))
(declare-fun src_reg_45_232 () (_ BitVec 32))
(declare-fun src_reg_45_160 () (_ BitVec 32))
(declare-fun src_reg_45_231 () (_ BitVec 32))
(declare-fun src_reg_45_159 () (_ BitVec 32))
(declare-fun src_reg_45_230 () (_ BitVec 32))
(declare-fun src_reg_45_158 () (_ BitVec 32))
(declare-fun src_reg_45_229 () (_ BitVec 32))
(declare-fun src_reg_45_157 () (_ BitVec 32))
(declare-fun src_reg_45_228 () (_ BitVec 32))
(declare-fun src_reg_45_156 () (_ BitVec 32))
(declare-fun src_reg_45_227 () (_ BitVec 32))
(declare-fun src_reg_45_155 () (_ BitVec 32))
(declare-fun src_reg_45_226 () (_ BitVec 32))
(declare-fun src_reg_45_154 () (_ BitVec 32))
(declare-fun src_reg_45_225 () (_ BitVec 32))
(declare-fun src_reg_45_153 () (_ BitVec 32))
(declare-fun src_reg_45_224 () (_ BitVec 64))
(declare-fun src_reg_45_152 () (_ BitVec 64))
(declare-fun src_reg_45_223 () (_ BitVec 64))
(declare-fun src_reg_45_151 () (_ BitVec 64))
(declare-fun src_reg_45_222 () (_ BitVec 64))
(declare-fun src_reg_45_150 () (_ BitVec 64))
(declare-fun src_reg_45_221 () (_ BitVec 64))
(declare-fun src_reg_45_149 () (_ BitVec 64))
(declare-fun src_reg_45_220 () (_ BitVec 64))
(declare-fun src_reg_45_148 () (_ BitVec 64))
(declare-fun src_reg_45_219 () (_ BitVec 64))
(declare-fun src_reg_45_147 () (_ BitVec 64))
(declare-fun src_reg_45_218 () (_ BitVec 32))
(declare-fun src_reg_45_146 () (_ BitVec 32))
(declare-fun src_reg_45_217 () (_ BitVec 32))
(declare-fun src_reg_45_145 () (_ BitVec 32))
(declare-fun dst_reg_45_216 () (_ BitVec 8))
(declare-fun dst_reg_45_144 () (_ BitVec 8))
(declare-fun dst_reg_45_215 () (_ BitVec 32))
(declare-fun dst_reg_45_143 () (_ BitVec 32))
(declare-fun dst_reg_45_214 () (_ BitVec 32))
(declare-fun dst_reg_45_142 () (_ BitVec 32))
(declare-fun dst_reg_45_213 () (_ BitVec 32))
(declare-fun dst_reg_45_141 () (_ BitVec 32))
(declare-fun dst_reg_45_212 () (_ BitVec 32))
(declare-fun dst_reg_45_140 () (_ BitVec 32))
(declare-fun dst_reg_45_211 () (_ BitVec 32))
(declare-fun dst_reg_45_139 () (_ BitVec 32))
(declare-fun dst_reg_45_210 () (_ BitVec 32))
(declare-fun dst_reg_45_138 () (_ BitVec 32))
(declare-fun dst_reg_45_209 () (_ BitVec 32))
(declare-fun dst_reg_45_137 () (_ BitVec 32))
(declare-fun dst_reg_45_208 () (_ BitVec 32))
(declare-fun dst_reg_45_136 () (_ BitVec 32))
(declare-fun dst_reg_45_207 () (_ BitVec 32))
(declare-fun dst_reg_45_135 () (_ BitVec 32))
(declare-fun dst_reg_45_206 () (_ BitVec 64))
(declare-fun dst_reg_45_134 () (_ BitVec 64))
(declare-fun dst_reg_45_205 () (_ BitVec 64))
(declare-fun dst_reg_45_133 () (_ BitVec 64))
(declare-fun dst_reg_45_204 () (_ BitVec 64))
(declare-fun dst_reg_45_132 () (_ BitVec 64))
(declare-fun dst_reg_45_203 () (_ BitVec 64))
(declare-fun dst_reg_45_131 () (_ BitVec 64))
(declare-fun dst_reg_45_202 () (_ BitVec 64))
(declare-fun dst_reg_45_130 () (_ BitVec 64))
(declare-fun dst_reg_45_201 () (_ BitVec 64))
(declare-fun dst_reg_45_129 () (_ BitVec 64))
(declare-fun dst_reg_45_200 () (_ BitVec 32))
(declare-fun dst_reg_45_128 () (_ BitVec 32))
(declare-fun dst_reg_45_199 () (_ BitVec 32))
(declare-fun dst_reg_45_127 () (_ BitVec 32))
(assert (let ((a!1 (and (= cmp2.not.i_45_109 #b1)
                (and (= cmp.not.i_45_106 #b1) (= narrow_45_103 #b0))))
      (a!2 (and (= cmp2.not.i_45_109 #b0)
                (and (= cmp.not.i_45_106 #b1) (= narrow_45_103 #b0))))
      (a!3 (and (= i.i2_45_85 other_branch_src_reg_45_181)
                (= other_branch_src_reg_45_55 other_branch_src_reg_45_182)
                (= i21.i5_45_86 other_branch_src_reg_45_183)
                (= i22.i8_45_87 other_branch_src_reg_45_184)
                (= i23.i11_45_88 other_branch_src_reg_45_185)
                (= i24.i14_45_89 other_branch_src_reg_45_186)
                (= i25.i17_45_90 other_branch_src_reg_45_187)
                (= i26.i20_45_91 other_branch_src_reg_45_188)
                (= i27.i23_45_92 other_branch_src_reg_45_189)
                (= i28.i26_45_93 other_branch_src_reg_45_190)
                (= i29.i29_45_94 other_branch_src_reg_45_191)
                (= i30.i32_45_95 other_branch_src_reg_45_192)
                (= other_branch_src_reg_45_66 other_branch_src_reg_45_193)
                (= other_branch_src_reg_45_67 other_branch_src_reg_45_194)
                (= other_branch_src_reg_45_68 other_branch_src_reg_45_195)
                (= other_branch_src_reg_45_69 other_branch_src_reg_45_196)
                (= other_branch_src_reg_45_70 other_branch_src_reg_45_197)
                (= other_branch_src_reg_45_71 other_branch_src_reg_45_198)
                (= i.i_45_74 other_branch_dst_reg_45_163)
                (= other_branch_dst_reg_45_37 other_branch_dst_reg_45_164)
                (= i21.i_45_75 other_branch_dst_reg_45_165)
                (= i22.i_45_76 other_branch_dst_reg_45_166)
                (= i23.i_45_77 other_branch_dst_reg_45_167)
                (= i24.i_45_78 other_branch_dst_reg_45_168)
                (= i25.i_45_79 other_branch_dst_reg_45_169)
                (= i26.i_45_80 other_branch_dst_reg_45_170)
                (= i27.i_45_81 other_branch_dst_reg_45_171)
                (= i28.i_45_82 other_branch_dst_reg_45_172)
                (= i29.i_45_83 other_branch_dst_reg_45_173)
                (= i30.i_45_84 other_branch_dst_reg_45_174)
                (= other_branch_dst_reg_45_48 other_branch_dst_reg_45_175)
                (= other_branch_dst_reg_45_49 other_branch_dst_reg_45_176)
                (= other_branch_dst_reg_45_50 other_branch_dst_reg_45_177)
                (= other_branch_dst_reg_45_51 other_branch_dst_reg_45_178)
                (= other_branch_dst_reg_45_52 other_branch_dst_reg_45_179)
                (= other_branch_dst_reg_45_53 other_branch_dst_reg_45_180)
                (= #x00000001 src_reg_45_145)
                (= src_reg_45_19 src_reg_45_146)
                (= src_reg_45_20 src_reg_45_147)
                (= src_reg_45_21 src_reg_45_148)
                (= src_reg_45_22 src_reg_45_149)
                (= src_reg_45_23 src_reg_45_150)
                (= src_reg_45_24 src_reg_45_151)
                (= src_reg_45_25 src_reg_45_152)
                (= src_reg_45_26 src_reg_45_153)
                (= src_reg_45_27 src_reg_45_154)
                (= src_reg_45_28 src_reg_45_155)
                (= src_reg_45_29 src_reg_45_156)
                (= src_reg_45_30 src_reg_45_157)
                (= src_reg_45_31 src_reg_45_158)
                (= src_reg_45_32 src_reg_45_159)
                (= src_reg_45_33 src_reg_45_160)
                (= src_reg_45_34 src_reg_45_161)
                (= src_reg_45_35 src_reg_45_162)
                (= #x00000001 dst_reg_45_127)
                (= dst_reg_45_1 dst_reg_45_128)
                (= dst_reg_45_2 dst_reg_45_129)
                (= dst_reg_45_3 dst_reg_45_130)
                (= dst_reg_45_4 dst_reg_45_131)
                (= dst_reg_45_5 dst_reg_45_132)
                (= dst_reg_45_6 dst_reg_45_133)
                (= dst_reg_45_7 dst_reg_45_134)
                (= dst_reg_45_8 dst_reg_45_135)
                (= dst_reg_45_9 dst_reg_45_136)
                (= dst_reg_45_10 dst_reg_45_137)
                (= dst_reg_45_11 dst_reg_45_138)
                (= dst_reg_45_12 dst_reg_45_139)
                (= dst_reg_45_13 dst_reg_45_140)
                (= dst_reg_45_14 dst_reg_45_141)
                (= dst_reg_45_15 dst_reg_45_142)
                (= dst_reg_45_16 dst_reg_45_143)
                (= dst_reg_45_17 dst_reg_45_144)))
      (a!7 (=> (and (= cmp.not.i_45_106 #b1) (= narrow_45_103 #b0))
               (and (= #x00000001 i1.i_45_107)
                    (ite (= i1.i_45_107 #x00000001)
                         (= cmp2.not.i_45_109 #b1)
                         (= cmp2.not.i_45_109 #b0)))))
      (a!8 (=> (= narrow_45_103 #b0)
               (and (= #x00000001 i.i35_45_104)
                    (ite (= i.i35_45_104 #x00000001)
                         (= cmp.not.i_45_106 #b1)
                         (= cmp.not.i_45_106 #b0))))))
(let ((a!4 (and (=> (= narrow_45_103 #b1) a!3)
                (=> (and (= cmp.not.i_45_106 #b0) (= narrow_45_103 #b0)) a!3)
                (=> a!2 a!3)
                (=> a!1
                    (and (= i.i2_45_85 other_branch_src_reg_45_181)
                         (= other_branch_src_reg_45_55
                            other_branch_src_reg_45_182)
                         (= i21.i5_45_86 other_branch_src_reg_45_183)
                         (= i22.i8_45_87 other_branch_src_reg_45_184)
                         (= i23.i11_45_88 other_branch_src_reg_45_185)
                         (= i24.i14_45_89 other_branch_src_reg_45_186)
                         (= i25.i17_45_90 other_branch_src_reg_45_187)
                         (= i26.i20_45_91 other_branch_src_reg_45_188)
                         (= i27.i23_45_92 other_branch_src_reg_45_189)
                         (= cond361.i534.i_45_122 other_branch_src_reg_45_190)
                         (= i29.i29_45_94 other_branch_src_reg_45_191)
                         (= i30.i32_45_95 other_branch_src_reg_45_192)
                         (= other_branch_src_reg_45_66
                            other_branch_src_reg_45_193)
                         (= other_branch_src_reg_45_67
                            other_branch_src_reg_45_194)
                         (= other_branch_src_reg_45_68
                            other_branch_src_reg_45_195)
                         (= other_branch_src_reg_45_69
                            other_branch_src_reg_45_196)
                         (= other_branch_src_reg_45_70
                            other_branch_src_reg_45_197)
                         (= other_branch_src_reg_45_71
                            other_branch_src_reg_45_198)
                         (= i.i_45_74 other_branch_dst_reg_45_163)
                         (= other_branch_dst_reg_45_37
                            other_branch_dst_reg_45_164)
                         (= i21.i_45_75 other_branch_dst_reg_45_165)
                         (= i22.i_45_76 other_branch_dst_reg_45_166)
                         (= i23.i_45_77 other_branch_dst_reg_45_167)
                         (= i24.i_45_78 other_branch_dst_reg_45_168)
                         (= i25.i_45_79 other_branch_dst_reg_45_169)
                         (= i26.i_45_80 other_branch_dst_reg_45_170)
                         (= cond371.i540.i_45_126 other_branch_dst_reg_45_171)
                         (= i28.i_45_82 other_branch_dst_reg_45_172)
                         (= i29.i_45_83 other_branch_dst_reg_45_173)
                         (= i30.i_45_84 other_branch_dst_reg_45_174)
                         (= other_branch_dst_reg_45_48
                            other_branch_dst_reg_45_175)
                         (= other_branch_dst_reg_45_49
                            other_branch_dst_reg_45_176)
                         (= other_branch_dst_reg_45_50
                            other_branch_dst_reg_45_177)
                         (= other_branch_dst_reg_45_51
                            other_branch_dst_reg_45_178)
                         (= other_branch_dst_reg_45_52
                            other_branch_dst_reg_45_179)
                         (= other_branch_dst_reg_45_53
                            other_branch_dst_reg_45_180)
                         (= #x00000001 src_reg_45_145)
                         (= src_reg_45_19 src_reg_45_146)
                         (= src_reg_45_20 src_reg_45_147)
                         (= src_reg_45_21 src_reg_45_148)
                         (= src_reg_45_22 src_reg_45_149)
                         (= src_reg_45_23 src_reg_45_150)
                         (= src_reg_45_24 src_reg_45_151)
                         (= src_reg_45_25 src_reg_45_152)
                         (= cond418.i.i_45_118 src_reg_45_153)
                         (= src_reg_45_27 src_reg_45_154)
                         (= src_reg_45_28 src_reg_45_155)
                         (= src_reg_45_29 src_reg_45_156)
                         (= src_reg_45_30 src_reg_45_157)
                         (= src_reg_45_31 src_reg_45_158)
                         (= src_reg_45_32 src_reg_45_159)
                         (= src_reg_45_33 src_reg_45_160)
                         (= src_reg_45_34 src_reg_45_161)
                         (= src_reg_45_35 src_reg_45_162)
                         (= #x00000001 dst_reg_45_127)
                         (= dst_reg_45_1 dst_reg_45_128)
                         (= dst_reg_45_2 dst_reg_45_129)
                         (= dst_reg_45_3 dst_reg_45_130)
                         (= dst_reg_45_4 dst_reg_45_131)
                         (= dst_reg_45_5 dst_reg_45_132)
                         (= dst_reg_45_6 dst_reg_45_133)
                         (= dst_reg_45_7 dst_reg_45_134)
                         (= dst_reg_45_8 dst_reg_45_135)
                         (= cond407.i.i_45_113 dst_reg_45_136)
                         (= dst_reg_45_10 dst_reg_45_137)
                         (= dst_reg_45_11 dst_reg_45_138)
                         (= dst_reg_45_12 dst_reg_45_139)
                         (= dst_reg_45_13 dst_reg_45_140)
                         (= dst_reg_45_14 dst_reg_45_141)
                         (= dst_reg_45_15 dst_reg_45_142)
                         (= dst_reg_45_16 dst_reg_45_143)
                         (= dst_reg_45_17 dst_reg_45_144)))
                (= dst_reg_45_127 dst_reg_45_199)
                (= dst_reg_45_128 dst_reg_45_200)
                (= dst_reg_45_129 dst_reg_45_201)
                (= dst_reg_45_130 dst_reg_45_202)
                (= dst_reg_45_131 dst_reg_45_203)
                (= dst_reg_45_132 dst_reg_45_204)
                (= dst_reg_45_133 dst_reg_45_205)
                (= dst_reg_45_134 dst_reg_45_206)
                (= dst_reg_45_135 dst_reg_45_207)
                (= dst_reg_45_136 dst_reg_45_208)
                (= dst_reg_45_137 dst_reg_45_209)
                (= dst_reg_45_138 dst_reg_45_210)
                (= dst_reg_45_139 dst_reg_45_211)
                (= dst_reg_45_140 dst_reg_45_212)
                (= dst_reg_45_141 dst_reg_45_213)
                (= dst_reg_45_142 dst_reg_45_214)
                (= dst_reg_45_143 dst_reg_45_215)
                (= dst_reg_45_144 dst_reg_45_216)
                (= src_reg_45_145 src_reg_45_217)
                (= src_reg_45_146 src_reg_45_218)
                (= src_reg_45_147 src_reg_45_219)
                (= src_reg_45_148 src_reg_45_220)
                (= src_reg_45_149 src_reg_45_221)
                (= src_reg_45_150 src_reg_45_222)
                (= src_reg_45_151 src_reg_45_223)
                (= src_reg_45_152 src_reg_45_224)
                (= src_reg_45_153 src_reg_45_225)
                (= src_reg_45_154 src_reg_45_226)
                (= src_reg_45_155 src_reg_45_227)
                (= src_reg_45_156 src_reg_45_228)
                (= src_reg_45_157 src_reg_45_229)
                (= src_reg_45_158 src_reg_45_230)
                (= src_reg_45_159 src_reg_45_231)
                (= src_reg_45_160 src_reg_45_232)
                (= src_reg_45_161 src_reg_45_233)
                (= src_reg_45_162 src_reg_45_234)
                (= other_branch_dst_reg_45_163 other_branch_dst_reg_45_235)
                (= other_branch_dst_reg_45_164 other_branch_dst_reg_45_236)
                (= other_branch_dst_reg_45_165 other_branch_dst_reg_45_237)
                (= other_branch_dst_reg_45_166 other_branch_dst_reg_45_238)
                (= other_branch_dst_reg_45_167 other_branch_dst_reg_45_239)
                (= other_branch_dst_reg_45_168 other_branch_dst_reg_45_240)
                (= other_branch_dst_reg_45_169 other_branch_dst_reg_45_241)
                (= other_branch_dst_reg_45_170 other_branch_dst_reg_45_242)
                (= other_branch_dst_reg_45_171 other_branch_dst_reg_45_243)
                (= other_branch_dst_reg_45_172 other_branch_dst_reg_45_244)
                (= other_branch_dst_reg_45_173 other_branch_dst_reg_45_245)
                (= other_branch_dst_reg_45_174 other_branch_dst_reg_45_246)
                (= other_branch_dst_reg_45_175 other_branch_dst_reg_45_247)
                (= other_branch_dst_reg_45_176 other_branch_dst_reg_45_248)
                (= other_branch_dst_reg_45_177 other_branch_dst_reg_45_249)
                (= other_branch_dst_reg_45_178 other_branch_dst_reg_45_250)
                (= other_branch_dst_reg_45_179 other_branch_dst_reg_45_251)
                (= other_branch_dst_reg_45_180 other_branch_dst_reg_45_252)
                (= other_branch_src_reg_45_181 other_branch_src_reg_45_253)
                (= other_branch_src_reg_45_182 other_branch_src_reg_45_254)
                (= other_branch_src_reg_45_183 other_branch_src_reg_45_255)
                (= other_branch_src_reg_45_184 other_branch_src_reg_45_256)
                (= other_branch_src_reg_45_185 other_branch_src_reg_45_257)
                (= other_branch_src_reg_45_186 other_branch_src_reg_45_258)
                (= other_branch_src_reg_45_187 other_branch_src_reg_45_259)
                (= other_branch_src_reg_45_188 other_branch_src_reg_45_260)
                (= other_branch_src_reg_45_189 other_branch_src_reg_45_261)
                (= other_branch_src_reg_45_190 other_branch_src_reg_45_262)
                (= other_branch_src_reg_45_191 other_branch_src_reg_45_263)
                (= other_branch_src_reg_45_192 other_branch_src_reg_45_264)
                (= other_branch_src_reg_45_193 other_branch_src_reg_45_265)
                (= other_branch_src_reg_45_194 other_branch_src_reg_45_266)
                (= other_branch_src_reg_45_195 other_branch_src_reg_45_267)
                (= other_branch_src_reg_45_196 other_branch_src_reg_45_268)
                (= other_branch_src_reg_45_197 other_branch_src_reg_45_269)
                (= other_branch_src_reg_45_198 other_branch_src_reg_45_270)))
      (a!6 (=> a!1
               (and (= sub400.i.i_45_111 (bvadd i146.i.i_45_99 #xffffffff))
                    (ite (bvslt i138.i.i_45_97 sub400.i.i_45_111)
                         (= cmp402.i.i_45_112 #b1)
                         (= cmp402.i.i_45_112 #b0))
                    (ite (= cmp402.i.i_45_112 #b1)
                         (= cond407.i.i_45_113 i138.i.i_45_97)
                         (= cond407.i.i_45_113 sub400.i.i_45_111))
                    (= add410.i.i_45_115 (bvadd i136.i.i_45_96 #x00000001))
                    (= src_reg_45_26 i373.i.i_45_116)
                    (ite (bvsgt add410.i.i_45_115 i373.i.i_45_116)
                         (= cmp413.i.i_45_117 #b1)
                         (= cmp413.i.i_45_117 #b0))
                    (ite (= cmp413.i.i_45_117 #b1)
                         (= cond418.i.i_45_118 add410.i.i_45_115)
                         (= cond418.i.i_45_118 i373.i.i_45_116))
                    (= i28.i26_45_93 i362.i530.i_45_119)
                    (= i28.i_45_82 i363.i532.i_45_120)
                    (ite (bvslt i362.i530.i_45_119 i363.i532.i_45_120)
                         (= cmp356.i533.i_45_121 #b1)
                         (= cmp356.i533.i_45_121 #b0))
                    (ite (= cmp356.i533.i_45_121 #b1)
                         (= cond361.i534.i_45_122 i362.i530.i_45_119)
                         (= cond361.i534.i_45_122 i363.i532.i_45_120))
                    (= i27.i23_45_92 i364.i536.i_45_123)
                    (= i27.i_45_81 i365.i538.i_45_124)
                    (ite (bvsgt i364.i536.i_45_123 i365.i538.i_45_124)
                         (= cmp366.i539.i_45_125 #b1)
                         (= cmp366.i539.i_45_125 #b0))
                    (ite (= cmp366.i539.i_45_125 #b1)
                         (= cond371.i540.i_45_126 i364.i536.i_45_123)
                         (= cond371.i540.i_45_126 i365.i538.i_45_124))))))
(let ((a!5 (=> (or a!1
                   a!2
                   (and (= cmp.not.i_45_106 #b0) (= narrow_45_103 #b0))
                   (= narrow_45_103 #b1))
               a!4)))
  (and a!5
       a!6
       a!7
       a!8
       (= dst_reg_45_0 dst_reg_45_0)
       (= dst_reg_45_1 dst_reg_45_1)
       (= dst_reg_45_2 dst_reg_45_2)
       (= dst_reg_45_3 dst_reg_45_3)
       (= dst_reg_45_4 dst_reg_45_4)
       (= dst_reg_45_5 dst_reg_45_5)
       (= dst_reg_45_6 dst_reg_45_6)
       (= dst_reg_45_7 dst_reg_45_7)
       (= dst_reg_45_8 dst_reg_45_8)
       (= dst_reg_45_9 dst_reg_45_9)
       (= dst_reg_45_10 dst_reg_45_10)
       (= dst_reg_45_11 dst_reg_45_11)
       (= dst_reg_45_12 dst_reg_45_12)
       (= dst_reg_45_13 dst_reg_45_13)
       (= dst_reg_45_14 dst_reg_45_14)
       (= dst_reg_45_15 dst_reg_45_15)
       (= dst_reg_45_16 dst_reg_45_16)
       (= dst_reg_45_17 dst_reg_45_17)
       (= src_reg_45_18 src_reg_45_18)
       (= src_reg_45_19 src_reg_45_19)
       (= src_reg_45_20 src_reg_45_20)
       (= src_reg_45_21 src_reg_45_21)
       (= src_reg_45_22 src_reg_45_22)
       (= src_reg_45_23 src_reg_45_23)
       (= src_reg_45_24 src_reg_45_24)
       (= src_reg_45_25 src_reg_45_25)
       (= src_reg_45_26 src_reg_45_26)
       (= src_reg_45_27 src_reg_45_27)
       (= src_reg_45_28 src_reg_45_28)
       (= src_reg_45_29 src_reg_45_29)
       (= src_reg_45_30 src_reg_45_30)
       (= src_reg_45_31 src_reg_45_31)
       (= src_reg_45_32 src_reg_45_32)
       (= src_reg_45_33 src_reg_45_33)
       (= src_reg_45_34 src_reg_45_34)
       (= src_reg_45_35 src_reg_45_35)
       (= other_branch_dst_reg_45_36 other_branch_dst_reg_45_36)
       (= other_branch_dst_reg_45_37 other_branch_dst_reg_45_37)
       (= other_branch_dst_reg_45_38 other_branch_dst_reg_45_38)
       (= other_branch_dst_reg_45_39 other_branch_dst_reg_45_39)
       (= other_branch_dst_reg_45_40 other_branch_dst_reg_45_40)
       (= other_branch_dst_reg_45_41 other_branch_dst_reg_45_41)
       (= other_branch_dst_reg_45_42 other_branch_dst_reg_45_42)
       (= other_branch_dst_reg_45_43 other_branch_dst_reg_45_43)
       (= other_branch_dst_reg_45_44 other_branch_dst_reg_45_44)
       (= other_branch_dst_reg_45_45 other_branch_dst_reg_45_45)
       (= other_branch_dst_reg_45_46 other_branch_dst_reg_45_46)
       (= other_branch_dst_reg_45_47 other_branch_dst_reg_45_47)
       (= other_branch_dst_reg_45_48 other_branch_dst_reg_45_48)
       (= other_branch_dst_reg_45_49 other_branch_dst_reg_45_49)
       (= other_branch_dst_reg_45_50 other_branch_dst_reg_45_50)
       (= other_branch_dst_reg_45_51 other_branch_dst_reg_45_51)
       (= other_branch_dst_reg_45_52 other_branch_dst_reg_45_52)
       (= other_branch_dst_reg_45_53 other_branch_dst_reg_45_53)
       (= other_branch_src_reg_45_54 other_branch_src_reg_45_54)
       (= other_branch_src_reg_45_55 other_branch_src_reg_45_55)
       (= other_branch_src_reg_45_56 other_branch_src_reg_45_56)
       (= other_branch_src_reg_45_57 other_branch_src_reg_45_57)
       (= other_branch_src_reg_45_58 other_branch_src_reg_45_58)
       (= other_branch_src_reg_45_59 other_branch_src_reg_45_59)
       (= other_branch_src_reg_45_60 other_branch_src_reg_45_60)
       (= other_branch_src_reg_45_61 other_branch_src_reg_45_61)
       (= other_branch_src_reg_45_62 other_branch_src_reg_45_62)
       (= other_branch_src_reg_45_63 other_branch_src_reg_45_63)
       (= other_branch_src_reg_45_64 other_branch_src_reg_45_64)
       (= other_branch_src_reg_45_65 other_branch_src_reg_45_65)
       (= other_branch_src_reg_45_66 other_branch_src_reg_45_66)
       (= other_branch_src_reg_45_67 other_branch_src_reg_45_67)
       (= other_branch_src_reg_45_68 other_branch_src_reg_45_68)
       (= other_branch_src_reg_45_69 other_branch_src_reg_45_69)
       (= other_branch_src_reg_45_70 other_branch_src_reg_45_70)
       (= other_branch_src_reg_45_71 other_branch_src_reg_45_71)
       (= #x00000001 i.i_45_74)
       (= dst_reg_45_2 i21.i_45_75)
       (= dst_reg_45_3 i22.i_45_76)
       (= dst_reg_45_4 i23.i_45_77)
       (= dst_reg_45_5 i24.i_45_78)
       (= dst_reg_45_6 i25.i_45_79)
       (= dst_reg_45_7 i26.i_45_80)
       (= dst_reg_45_8 i27.i_45_81)
       (= dst_reg_45_9 i28.i_45_82)
       (= dst_reg_45_10 i29.i_45_83)
       (= dst_reg_45_11 i30.i_45_84)
       (= #x00000001 i.i2_45_85)
       (= src_reg_45_20 i21.i5_45_86)
       (= src_reg_45_21 i22.i8_45_87)
       (= src_reg_45_22 i23.i11_45_88)
       (= src_reg_45_23 i24.i14_45_89)
       (= src_reg_45_24 i25.i17_45_90)
       (= src_reg_45_25 i26.i20_45_91)
       (= src_reg_45_26 i27.i23_45_92)
       (= src_reg_45_27 i28.i26_45_93)
       (= src_reg_45_28 i29.i29_45_94)
       (= src_reg_45_29 i30.i32_45_95)
       (= dst_reg_45_8 i136.i.i_45_96)
       (= dst_reg_45_9 i138.i.i_45_97)
       (= src_reg_45_26 i144.i.i_45_98)
       (= src_reg_45_27 i146.i.i_45_99)
       (ite (bvsge i136.i.i_45_96 i146.i.i_45_99)
            (= cmp241.not.i.i_45_100 #b1)
            (= cmp241.not.i.i_45_100 #b0))
       (ite (bvslt i138.i.i_45_97 i144.i.i_45_98)
            (= cmp245.i.i_45_101 #b1)
            (= cmp245.i.i_45_101 #b0))
       (ite (= cmp241.not.i.i_45_100 #b1)
            (= narrow_45_103 #b1)
            (= narrow_45_103 cmp245.i.i_45_101)))))))

;{"dst_reg":["dst_reg_45_0","dst_reg_45_1",[""],["dst_reg_45_2","dst_reg_45_3"],"dst_reg_45_4","dst_reg_45_5","dst_reg_45_6","dst_reg_45_7","dst_reg_45_8","dst_reg_45_9","dst_reg_45_10","dst_reg_45_11","dst_reg_45_12","dst_reg_45_13","","","dst_reg_45_14","dst_reg_45_15","dst_reg_45_16"],"other_branch_dst_reg":["other_branch_dst_reg_45_36","other_branch_dst_reg_45_37",[""],["other_branch_dst_reg_45_38","other_branch_dst_reg_45_39"],"other_branch_dst_reg_45_40","other_branch_dst_reg_45_41","other_branch_dst_reg_45_42","other_branch_dst_reg_45_43","other_branch_dst_reg_45_44","other_branch_dst_reg_45_45","other_branch_dst_reg_45_46","other_branch_dst_reg_45_47","other_branch_dst_reg_45_48","other_branch_dst_reg_45_49","","","other_branch_dst_reg_45_50","other_branch_dst_reg_45_51","other_branch_dst_reg_45_52"],"other_branch_src_reg":["other_branch_src_reg_45_54","other_branch_src_reg_45_55",[""],["other_branch_src_reg_45_56","other_branch_src_reg_45_57"],"other_branch_src_reg_45_58","other_branch_src_reg_45_59","other_branch_src_reg_45_60","other_branch_src_reg_45_61","other_branch_src_reg_45_62","other_branch_src_reg_45_63","other_branch_src_reg_45_64","other_branch_src_reg_45_65","other_branch_src_reg_45_66","other_branch_src_reg_45_67","","","other_branch_src_reg_45_68","other_branch_src_reg_45_69","other_branch_src_reg_45_70"],"src_reg":["src_reg_45_18","src_reg_45_19",[""],["src_reg_45_20","src_reg_45_21"],"src_reg_45_22","src_reg_45_23","src_reg_45_24","src_reg_45_25","src_reg_45_26","src_reg_45_27","src_reg_45_28","src_reg_45_29","src_reg_45_30","src_reg_45_31","","","src_reg_45_32","src_reg_45_33","src_reg_45_34"]}
;{"dst_reg":["dst_reg_45_199","dst_reg_45_200",[""],["dst_reg_45_201","dst_reg_45_202"],"dst_reg_45_203","dst_reg_45_204","dst_reg_45_205","dst_reg_45_206","dst_reg_45_207","dst_reg_45_208","dst_reg_45_209","dst_reg_45_210","dst_reg_45_211","dst_reg_45_212","","","dst_reg_45_213","dst_reg_45_214","dst_reg_45_215"],"other_branch_dst_reg":["other_branch_dst_reg_45_235","other_branch_dst_reg_45_236",[""],["other_branch_dst_reg_45_237","other_branch_dst_reg_45_238"],"other_branch_dst_reg_45_239","other_branch_dst_reg_45_240","other_branch_dst_reg_45_241","other_branch_dst_reg_45_242","other_branch_dst_reg_45_243","other_branch_dst_reg_45_244","other_branch_dst_reg_45_245","other_branch_dst_reg_45_246","other_branch_dst_reg_45_247","other_branch_dst_reg_45_248","","","other_branch_dst_reg_45_249","other_branch_dst_reg_45_250","other_branch_dst_reg_45_251"],"other_branch_src_reg":["other_branch_src_reg_45_253","other_branch_src_reg_45_254",[""],["other_branch_src_reg_45_255","other_branch_src_reg_45_256"],"other_branch_src_reg_45_257","other_branch_src_reg_45_258","other_branch_src_reg_45_259","other_branch_src_reg_45_260","other_branch_src_reg_45_261","other_branch_src_reg_45_262","other_branch_src_reg_45_263","other_branch_src_reg_45_264","other_branch_src_reg_45_265","other_branch_src_reg_45_266","","","other_branch_src_reg_45_267","other_branch_src_reg_45_268","other_branch_src_reg_45_269"],"src_reg":["src_reg_45_217","src_reg_45_218",[""],["src_reg_45_219","src_reg_45_220"],"src_reg_45_221","src_reg_45_222","src_reg_45_223","src_reg_45_224","src_reg_45_225","src_reg_45_226","src_reg_45_227","src_reg_45_228","src_reg_45_229","src_reg_45_230","","","src_reg_45_231","src_reg_45_232","src_reg_45_233"]}
